p cnf 24 270
 2 3 4 8 9 10 11 13 17
-12 -15 -13 -17 -5 -2 -10 -11 -9 -16 -8 2 4 5 8 9 10 11 12 13 15 16 17
-13 -2 -5 -8 -11 -9 -10 -17 -4 -15 -12 -3 2 3 4 5 8 9 10 11 12 13 15 17
-8 -16 -15 2 3 4 5 8 9 10 12 13 15 16 0
-15 -4 -12 -2 -16 2 4 8 10 12 15 16
 2 4 8 9 10 11 12 16 17
-5 -3 -11 -17 -9 -10 -12 -4 -2 -15 2 3 4 5 8 9 10 11 12 13 15 16 17 0
 16 2 3 5 8 0

-3 -4 -15 -9 -11 -2 2 3 4 9 10 11 13 15 16

 3 0
-8 -10 -17 -5 -3 -11 2 3 4 5 8 10 11 13 15 16 17 0
-5 -10 -12 -8 -11 3 4 5 8 9 10 11 12 13 15 16 17
-15 15 0
 12
-13 -12 -3 -8 3 8 12 13 15 16 0
-3 -9 -5 -12 2 3 4 5 8 9 10 11 12 13 15 16 17 0
-11 -17 -4 -5 -13 -3 -15 -2 2 3 4 5 11 13 15 17 0
-2 -3 -10 3 10 2 4 0
-11 3 5 8 11 12
 3 5 8 9 15 0
 2 4 5 8 11 12 13 15 16
-11 9 11 0
-4 16 4 12 15 0
-15 -2 2 3 8 9 13 15
 10 5
-16 -5 -13 3 5 9 13 15 16

 5
 11 4 13
-15 -4 -11 2 4 5 8 9 10 11 13 15 17 0
 2 4 13 15 0
-17 -15 -16 -9 -5 -12 -13 -4 -11 -10 2 4 5 8 9 10 11 12 13 15 16 17
-8 -16 -2 -3 -5 2 3 4 5 8 9 10 11 12 13 15 16 17
-4 -17 -9 -8 -5 -13 -12 2 3 4 5 8 9 10 11 12 13 15 16 17
-8 -16 -3 3 5 8 9 11 12 16 17
-8 -15 8 17 5 15 0
-5 -10 -2 -8 -16 -4 -3 -17 -13 -9 -11 -12 2 3 4 5 8 9 10 11 12 13 16 17
-17 -8 -10 -13 -5 -4 -12 4 5 8 9 10 11 12 13 15 16 17
-10 -12 -16 3 4 5 10 11 12 16 17
-3 -13 -15 2 3 4 5 8 9 10 11 12 13 15 16 17
-16 -5 -13 16 13 11 5 0

-10 -16 8 9 10 16 17 0
-15 -12 8 12 15 0
-16 2 3 4 8 16 17
-10 8 10 12 0
-17 -16 -5 -4 -10 -3 2 3 4 5 10 16 17 0
 10 11
-12 -2 -15 -16 -5 -11 -17 -10 2 3 4 5 8 9 10 11 12 13 15 16 17
-10 -15 -12 -17 -5 5 10 12 15 17
-17 -2 -16 -10 2 8 10 11 16 17 0
-9 16 9 3
-9 -15 -8 -12 -3 -17 -11 -2 2 3 4 5 8 9 10 11 12 13 15 16 17
-16 -5 -12 -10 -17 -8 -3 3 5 8 10 12 16 17
-13 -15 -3 2 3 4 5 8 9 10 11 12 13 15 17 0

-11 -15 -13 2 3 4 5 9 10 11 12 13 15 16 0
-12 -5 -10 -15 -11 -9 -17 -4 3 4 5 9 10 11 12 15 16 17 0
-15 17 11 9 15
-11 -12 -13 3 4 9 11 12 13 17
-15 -12 -8 3 5 8 10 12 15
-13 -3 -9 -15 -8 -12 -4 -11 -2 -16 -10 -17 2 3 4 8 9 10 11 12 13 15 16 17 0
-16 2 4 11 15 16
-16 5 9 11 15 16 17 0
-17 -10 17 10 0
-16 -9 -12 2 3 5 9 12 16 0
-8 8
 17 5 8 9 12 13 15 0
-8 4 5 8 9 11 12 16 17 0
-12 -13 -2 2 9 10 12 13 16 0
-16 16 0
-10 -11 2 4 9 10 11 13
-4 -5 -3 -12 3 4 5 8 10 11 12 13 15 16 17 0
-11 3 2 11 4
-4 -17 -2 2 4 5 8 9 10 12 15 17 0
-5 -15 -4 -3 -11 -17 3 4 5 10 11 13 15 16 17
-16 -9 16 9
 16 9 11 4
-8 -16 -12 8 9 11 12 13 16 0
-10 -8 -15 -2 -5 -4 -16 -3 -13 -17 -9 2 3 4 5 8 9 10 11 12 13 15 16 17 0
 2 3 4 5 8 10 11 12 13 15 16 17 0
-5 -9 -11 -8 2 5 8 9 11 12 13 16 0
 2 5 8 9 10 11
-11 -16 -17 -5 -13 -4 -2 2 4 5 11 13 16 17 0
-2 -16 -12 -15 -5 -11 -17 2 3 4 5 8 9 11 12 15 16 17
-8 -12 -4 -10 -13 -2 2 3 4 5 8 9 10 11 12 13 15 16 17
-15 -13 2 3 4 10 12 13 15 16
 15 0
-16 3 4 9 11 12 13 15 16 17 0
-17 8 17 13 9
-16 -17 -2 -13 -12 -10 -11 -4 -8 -9 -5 -15 2 4 5 8 9 10 11 12 13 15 16 17
-9 -5 9 5 17
 2 3 4 5 9 11 12 13 15 16 0
 2 11
-5 -15 -8 5 8 10 12 15 17 0
-10 2 3 5 8 10 11 12 15 16
-8 -2 -12 -4 2 4 8 9 12 17
-8 -10 -4 -5 -15 -2 2 3 4 5 8 9 10 15 0
 16 3 11
-11 -4 -13 2 11 4 13 0
-11 -8 -9 -5 -10 -17 -15 5 8 9 10 11 15 17 0
-16 16 2 12 5 0
-4 -5 -9 -12 -16 2 3 4 5 9 12 16
 10 13 5
-13 9 10 3 13
-2 -12 -16 -13 -11 2 8 10 11 12 13 16 0
-4 -16 -8 8 16 11 4 0
-15 -9 9 15
-5 -17 -12 -15 -2 -3 -4 -8 2 3 4 5 8 9 10 12 15 17 0
-12 -4 -8 -2 -13 2 4 5 8 12 13 16 0

 12
-9 -16 -3 -13 -5 -10 -8 -17 -2 2 3 4 5 8 9 10 11 12 13 15 16 17
-11 -8 -3 -15 -12 -16 -2 -5 -10 -17 -9 2 3 4 5 8 9 10 11 12 13 15 16 17
 11 15 0
-17 -9 -3 -15 3 5 9 15 17 0
-16 -15 -9 -8 -3 -11 2 3 4 5 8 9 10 11 12 13 15 16 17 0
-16 -8 16 8
 17 4 8 9 10 12 15 0
-17 -16 -10 -5 -2 2 4 5 10 13 16 17
-10 -15 -13 3 9 10 11 12 13 15 17 0
 5
-3 -8 -2 -13 2 3 8 9 10 11 12 13 16 0
 16 17 4 9 10 0

-2 -12 -5 -3 -9 -10 -8 -16 -15 2 3 5 8 9 10 11 12 15 16
-16 -11 3 5 10 11 12 13 15 16
 17
-17 2 3 5 8 9 10 11 12 15 16 17 0
-2 -11 -15 -13 2 5 9 10 11 13 15 0
-3 -17 -4 -15 -9 -16 -10 -12 3 4 5 9 10 11 12 13 15 16 17
-10 -11 10 11
-2 2 0
-16 -3 16 3 0
